Route #1: 46 20 51 5 49 17 14 47 27 18 10 13 39 35 16 33 50 23 3 24
Route #2: 30 45 52 44 8 36 34
Route #3: 40 29 25 15 22 12 4 32
Route #4: 42 2 21 31 19
Route #5: 7 28 11 38 6 9 48
Route #6: 1 41 26 43 37
Route #7: 
cost 824.2491473170819
